% Generated FlatZinc statistics:
%%%mzn-stat: paths=0
%%%mzn-stat: flatBoolVars=336
%%%mzn-stat: flatIntVars=4703
%%%mzn-stat: flatIntConstraints=9062
%%%mzn-stat: evaluatedReifiedConstraints=2980
%%%mzn-stat: evaluatedHalfReifiedConstraints=822
%%%mzn-stat: method="minimize"
%%%mzn-stat: flatTime=0.430696
%%%mzn-stat-end
%%%mzn-stat: objective=7620
%%%mzn-stat: objectiveBound=3332
%%%mzn-stat: nodes=2574
%%%mzn-stat: solveTime=59.5696
%%%mzn-stat-end
end = 64
carga_por_operario = [61, 57]
desbalance = 4
Job 1:   0(op:1)   1(op:1)   3(op:1)  11(op:1)  19(op:2)
Job 2:   1(op:2)   7(op:2)  19(op:1)  21(op:2)  22(op:1)
Job 3:  16(op:1)  20(op:1)  22(op:2)  24(op:2)  29(op:1)
Job 4:  29(op:2)  32(op:2)  36(op:2)  39(op:1)  51(op:2)
Job 5:  39(op:2)  47(op:2)  50(op:2)  54(op:1)  58(op:1)
Job 6:  11(op:2)  12(op:2)  14(op:2)  47(op:1)  56(op:2)
----------
%%%mzn-stat: objective=7620
%%%mzn-stat: objectiveBound=3332
%%%mzn-stat: nodes=2574
%%%mzn-stat: solveTime=59.5696
%%%mzn-stat-end
%%%mzn-stat: nSolutions=1
%%%mzn-stat-end
